c Standarized MaxSat Instance
c{
c "sha1sum": "b7622bf781e5fcdc7fe9edc3ec46bda3254f0e96",
c "nvars": 60,
c "ncls": 1200,
c "nhards": 0,
c "nhard_len_stats":
c    { "min": 0, "max": 0, "ave": 0.00,
c      "stddev": 0.00 },
c "nsofts": 1200,
c "nsoft_len_stats":
c    { "min": 2, "max": 2, "ave": 2.00,
c      "stddev": 0.00 },
c "nsoft_wts": 10,
c "soft_wt_stats":
c    { "min": 1, "max": 10, "ave": 5.69,
c      "stddev": 2.81 }
c}
c------------------------------------------------------------
c Generated after 1 tries
c Graph with 60 nodes and 600 edges, Max edges:1770
p wcnf 60 1200 6827
9 1 12 0
9 -1 -12 0
4 1 17 0
4 -1 -17 0
8 1 19 0
8 -1 -19 0
8 1 20 0
8 -1 -20 0
10 1 24 0
10 -1 -24 0
2 1 30 0
2 -1 -30 0
4 1 34 0
4 -1 -34 0
8 1 35 0
8 -1 -35 0
3 1 36 0
3 -1 -36 0
6 1 38 0
6 -1 -38 0
5 1 41 0
5 -1 -41 0
7 1 42 0
7 -1 -42 0
4 1 43 0
4 -1 -43 0
6 1 45 0
6 -1 -45 0
10 1 49 0
10 -1 -49 0
10 1 51 0
10 -1 -51 0
7 1 55 0
7 -1 -55 0
8 1 59 0
8 -1 -59 0
2 2 3 0
2 -2 -3 0
7 2 5 0
7 -2 -5 0
1 2 8 0
1 -2 -8 0
3 2 9 0
3 -2 -9 0
2 2 10 0
2 -2 -10 0
9 2 11 0
9 -2 -11 0
2 2 19 0
2 -2 -19 0
5 2 21 0
5 -2 -21 0
2 2 22 0
2 -2 -22 0
2 2 29 0
2 -2 -29 0
10 2 32 0
10 -2 -32 0
3 2 35 0
3 -2 -35 0
6 2 40 0
6 -2 -40 0
9 2 41 0
9 -2 -41 0
7 2 42 0
7 -2 -42 0
3 2 49 0
3 -2 -49 0
7 2 50 0
7 -2 -50 0
6 2 55 0
6 -2 -55 0
5 2 60 0
5 -2 -60 0
10 3 6 0
10 -3 -6 0
3 3 7 0
3 -3 -7 0
8 3 13 0
8 -3 -13 0
6 3 22 0
6 -3 -22 0
8 3 27 0
8 -3 -27 0
5 3 30 0
5 -3 -30 0
9 3 36 0
9 -3 -36 0
3 3 39 0
3 -3 -39 0
4 3 40 0
4 -3 -40 0
9 3 43 0
9 -3 -43 0
10 3 46 0
10 -3 -46 0
1 3 47 0
1 -3 -47 0
10 3 52 0
10 -3 -52 0
6 3 53 0
6 -3 -53 0
1 3 54 0
1 -3 -54 0
2 3 56 0
2 -3 -56 0
7 3 57 0
7 -3 -57 0
9 3 60 0
9 -3 -60 0
4 4 6 0
4 -4 -6 0
1 4 7 0
1 -4 -7 0
1 4 8 0
1 -4 -8 0
5 4 17 0
5 -4 -17 0
1 4 18 0
1 -4 -18 0
3 4 24 0
3 -4 -24 0
10 4 26 0
10 -4 -26 0
10 4 32 0
10 -4 -32 0
9 4 39 0
9 -4 -39 0
3 4 40 0
3 -4 -40 0
6 4 41 0
6 -4 -41 0
4 4 45 0
4 -4 -45 0
8 4 47 0
8 -4 -47 0
6 4 51 0
6 -4 -51 0
7 4 54 0
7 -4 -54 0
6 4 57 0
6 -4 -57 0
1 4 58 0
1 -4 -58 0
5 4 60 0
5 -4 -60 0
10 5 7 0
10 -5 -7 0
10 5 12 0
10 -5 -12 0
8 5 13 0
8 -5 -13 0
3 5 25 0
3 -5 -25 0
8 5 29 0
8 -5 -29 0
7 5 31 0
7 -5 -31 0
4 5 33 0
4 -5 -33 0
7 5 35 0
7 -5 -35 0
2 5 46 0
2 -5 -46 0
5 5 48 0
5 -5 -48 0
9 5 49 0
9 -5 -49 0
9 5 51 0
9 -5 -51 0
4 5 52 0
4 -5 -52 0
3 5 53 0
3 -5 -53 0
9 5 57 0
9 -5 -57 0
4 5 59 0
4 -5 -59 0
7 6 9 0
7 -6 -9 0
10 6 12 0
10 -6 -12 0
6 6 13 0
6 -6 -13 0
7 6 15 0
7 -6 -15 0
9 6 23 0
9 -6 -23 0
5 6 24 0
5 -6 -24 0
10 6 27 0
10 -6 -27 0
4 6 30 0
4 -6 -30 0
9 6 31 0
9 -6 -31 0
7 6 32 0
7 -6 -32 0
10 6 36 0
10 -6 -36 0
5 6 37 0
5 -6 -37 0
3 6 41 0
3 -6 -41 0
10 6 43 0
10 -6 -43 0
10 6 44 0
10 -6 -44 0
2 6 45 0
2 -6 -45 0
9 6 46 0
9 -6 -46 0
7 6 48 0
7 -6 -48 0
5 6 50 0
5 -6 -50 0
7 6 57 0
7 -6 -57 0
3 6 58 0
3 -6 -58 0
8 6 60 0
8 -6 -60 0
4 7 9 0
4 -7 -9 0
5 7 10 0
5 -7 -10 0
3 7 11 0
3 -7 -11 0
2 7 13 0
2 -7 -13 0
3 7 24 0
3 -7 -24 0
6 7 33 0
6 -7 -33 0
5 7 41 0
5 -7 -41 0
2 7 43 0
2 -7 -43 0
10 7 45 0
10 -7 -45 0
2 7 47 0
2 -7 -47 0
2 7 48 0
2 -7 -48 0
5 7 52 0
5 -7 -52 0
8 7 53 0
8 -7 -53 0
10 7 57 0
10 -7 -57 0
10 7 59 0
10 -7 -59 0
7 8 10 0
7 -8 -10 0
4 8 13 0
4 -8 -13 0
8 8 15 0
8 -8 -15 0
4 8 20 0
4 -8 -20 0
3 8 25 0
3 -8 -25 0
3 8 26 0
3 -8 -26 0
6 8 32 0
6 -8 -32 0
3 8 34 0
3 -8 -34 0
2 8 37 0
2 -8 -37 0
8 8 38 0
8 -8 -38 0
2 8 40 0
2 -8 -40 0
8 8 41 0
8 -8 -41 0
2 8 43 0
2 -8 -43 0
8 8 46 0
8 -8 -46 0
1 8 48 0
1 -8 -48 0
10 8 49 0
10 -8 -49 0
1 8 50 0
1 -8 -50 0
6 8 54 0
6 -8 -54 0
2 8 55 0
2 -8 -55 0
3 8 59 0
3 -8 -59 0
8 9 10 0
8 -9 -10 0
8 9 14 0
8 -9 -14 0
7 9 18 0
7 -9 -18 0
10 9 22 0
10 -9 -22 0
7 9 25 0
7 -9 -25 0
8 9 26 0
8 -9 -26 0
1 9 29 0
1 -9 -29 0
2 9 30 0
2 -9 -30 0
6 9 31 0
6 -9 -31 0
1 9 32 0
1 -9 -32 0
1 9 37 0
1 -9 -37 0
3 9 41 0
3 -9 -41 0
5 9 42 0
5 -9 -42 0
9 9 47 0
9 -9 -47 0
6 9 52 0
6 -9 -52 0
8 9 56 0
8 -9 -56 0
1 9 57 0
1 -9 -57 0
2 9 58 0
2 -9 -58 0
10 9 59 0
10 -9 -59 0
3 9 60 0
3 -9 -60 0
9 10 19 0
9 -10 -19 0
2 10 23 0
2 -10 -23 0
10 10 24 0
10 -10 -24 0
1 10 25 0
1 -10 -25 0
9 10 26 0
9 -10 -26 0
1 10 31 0
1 -10 -31 0
1 10 32 0
1 -10 -32 0
10 10 33 0
10 -10 -33 0
6 10 34 0
6 -10 -34 0
2 10 36 0
2 -10 -36 0
2 10 37 0
2 -10 -37 0
4 10 45 0
4 -10 -45 0
10 10 47 0
10 -10 -47 0
9 10 49 0
9 -10 -49 0
4 10 52 0
4 -10 -52 0
6 10 58 0
6 -10 -58 0
6 11 12 0
6 -11 -12 0
5 11 18 0
5 -11 -18 0
7 11 25 0
7 -11 -25 0
1 11 29 0
1 -11 -29 0
6 11 34 0
6 -11 -34 0
8 11 35 0
8 -11 -35 0
4 11 42 0
4 -11 -42 0
10 11 47 0
10 -11 -47 0
6 11 51 0
6 -11 -51 0
9 11 54 0
9 -11 -54 0
8 11 55 0
8 -11 -55 0
7 11 56 0
7 -11 -56 0
1 11 58 0
1 -11 -58 0
8 11 60 0
8 -11 -60 0
9 12 14 0
9 -12 -14 0
10 12 16 0
10 -12 -16 0
9 12 17 0
9 -12 -17 0
9 12 18 0
9 -12 -18 0
10 12 23 0
10 -12 -23 0
8 12 25 0
8 -12 -25 0
10 12 27 0
10 -12 -27 0
10 12 28 0
10 -12 -28 0
7 12 30 0
7 -12 -30 0
5 12 37 0
5 -12 -37 0
2 12 40 0
2 -12 -40 0
9 12 46 0
9 -12 -46 0
9 12 48 0
9 -12 -48 0
1 12 51 0
1 -12 -51 0
7 12 54 0
7 -12 -54 0
3 12 58 0
3 -12 -58 0
7 12 60 0
7 -12 -60 0
3 13 16 0
3 -13 -16 0
8 13 19 0
8 -13 -19 0
4 13 20 0
4 -13 -20 0
4 13 21 0
4 -13 -21 0
3 13 24 0
3 -13 -24 0
1 13 30 0
1 -13 -30 0
7 13 37 0
7 -13 -37 0
3 13 38 0
3 -13 -38 0
7 13 40 0
7 -13 -40 0
6 13 45 0
6 -13 -45 0
10 13 47 0
10 -13 -47 0
3 13 50 0
3 -13 -50 0
6 13 54 0
6 -13 -54 0
8 13 57 0
8 -13 -57 0
2 13 58 0
2 -13 -58 0
5 14 17 0
5 -14 -17 0
6 14 19 0
6 -14 -19 0
10 14 20 0
10 -14 -20 0
5 14 22 0
5 -14 -22 0
4 14 24 0
4 -14 -24 0
9 14 25 0
9 -14 -25 0
5 14 26 0
5 -14 -26 0
1 14 27 0
1 -14 -27 0
4 14 29 0
4 -14 -29 0
6 14 31 0
6 -14 -31 0
9 14 33 0
9 -14 -33 0
3 14 41 0
3 -14 -41 0
7 14 42 0
7 -14 -42 0
5 14 47 0
5 -14 -47 0
5 14 48 0
5 -14 -48 0
4 14 54 0
4 -14 -54 0
8 15 16 0
8 -15 -16 0
2 15 17 0
2 -15 -17 0
7 15 20 0
7 -15 -20 0
1 15 21 0
1 -15 -21 0
5 15 22 0
5 -15 -22 0
7 15 23 0
7 -15 -23 0
7 15 24 0
7 -15 -24 0
7 15 28 0
7 -15 -28 0
4 15 33 0
4 -15 -33 0
2 15 37 0
2 -15 -37 0
7 15 41 0
7 -15 -41 0
7 15 43 0
7 -15 -43 0
8 15 45 0
8 -15 -45 0
4 15 46 0
4 -15 -46 0
8 15 47 0
8 -15 -47 0
3 15 56 0
3 -15 -56 0
10 15 58 0
10 -15 -58 0
7 15 60 0
7 -15 -60 0
7 16 22 0
7 -16 -22 0
3 16 26 0
3 -16 -26 0
6 16 27 0
6 -16 -27 0
1 16 28 0
1 -16 -28 0
3 16 29 0
3 -16 -29 0
9 16 30 0
9 -16 -30 0
7 16 32 0
7 -16 -32 0
1 16 37 0
1 -16 -37 0
2 16 38 0
2 -16 -38 0
4 16 39 0
4 -16 -39 0
6 16 45 0
6 -16 -45 0
6 16 48 0
6 -16 -48 0
7 16 50 0
7 -16 -50 0
3 16 52 0
3 -16 -52 0
8 16 56 0
8 -16 -56 0
3 16 57 0
3 -16 -57 0
4 16 59 0
4 -16 -59 0
2 17 21 0
2 -17 -21 0
10 17 33 0
10 -17 -33 0
1 17 34 0
1 -17 -34 0
9 17 35 0
9 -17 -35 0
4 17 37 0
4 -17 -37 0
2 17 39 0
2 -17 -39 0
5 17 41 0
5 -17 -41 0
10 17 46 0
10 -17 -46 0
10 17 47 0
10 -17 -47 0
8 17 50 0
8 -17 -50 0
7 17 55 0
7 -17 -55 0
2 18 25 0
2 -18 -25 0
7 18 29 0
7 -18 -29 0
4 18 42 0
4 -18 -42 0
8 18 44 0
8 -18 -44 0
10 18 46 0
10 -18 -46 0
10 18 47 0
10 -18 -47 0
9 18 49 0
9 -18 -49 0
3 18 50 0
3 -18 -50 0
8 18 51 0
8 -18 -51 0
6 18 54 0
6 -18 -54 0
3 18 55 0
3 -18 -55 0
10 18 56 0
10 -18 -56 0
10 18 57 0
10 -18 -57 0
9 19 23 0
9 -19 -23 0
5 19 26 0
5 -19 -26 0
6 19 28 0
6 -19 -28 0
2 19 34 0
2 -19 -34 0
3 19 35 0
3 -19 -35 0
9 19 38 0
9 -19 -38 0
5 19 43 0
5 -19 -43 0
5 19 44 0
5 -19 -44 0
9 19 45 0
9 -19 -45 0
5 19 50 0
5 -19 -50 0
3 19 52 0
3 -19 -52 0
2 19 57 0
2 -19 -57 0
7 20 25 0
7 -20 -25 0
8 20 26 0
8 -20 -26 0
2 20 28 0
2 -20 -28 0
7 20 30 0
7 -20 -30 0
5 20 31 0
5 -20 -31 0
9 20 32 0
9 -20 -32 0
8 20 35 0
8 -20 -35 0
2 20 36 0
2 -20 -36 0
3 20 39 0
3 -20 -39 0
5 20 42 0
5 -20 -42 0
2 20 57 0
2 -20 -57 0
2 21 24 0
2 -21 -24 0
4 21 25 0
4 -21 -25 0
4 21 35 0
4 -21 -35 0
10 21 38 0
10 -21 -38 0
10 21 40 0
10 -21 -40 0
7 21 41 0
7 -21 -41 0
9 21 44 0
9 -21 -44 0
9 21 47 0
9 -21 -47 0
5 21 49 0
5 -21 -49 0
4 21 52 0
4 -21 -52 0
4 21 53 0
4 -21 -53 0
7 21 56 0
7 -21 -56 0
7 22 27 0
7 -22 -27 0
3 22 28 0
3 -22 -28 0
2 22 29 0
2 -22 -29 0
1 22 30 0
1 -22 -30 0
2 22 31 0
2 -22 -31 0
7 22 34 0
7 -22 -34 0
4 22 37 0
4 -22 -37 0
3 22 42 0
3 -22 -42 0
4 22 45 0
4 -22 -45 0
1 22 49 0
1 -22 -49 0
5 22 51 0
5 -22 -51 0
10 22 52 0
10 -22 -52 0
6 22 55 0
6 -22 -55 0
3 22 58 0
3 -22 -58 0
7 22 59 0
7 -22 -59 0
8 23 24 0
8 -23 -24 0
5 23 25 0
5 -23 -25 0
2 23 29 0
2 -23 -29 0
9 23 30 0
9 -23 -30 0
7 23 31 0
7 -23 -31 0
6 23 33 0
6 -23 -33 0
3 23 35 0
3 -23 -35 0
6 23 36 0
6 -23 -36 0
5 23 45 0
5 -23 -45 0
9 23 56 0
9 -23 -56 0
4 23 57 0
4 -23 -57 0
3 23 59 0
3 -23 -59 0
4 24 25 0
4 -24 -25 0
8 24 29 0
8 -24 -29 0
7 24 35 0
7 -24 -35 0
10 24 39 0
10 -24 -39 0
4 24 40 0
4 -24 -40 0
9 24 41 0
9 -24 -41 0
2 24 42 0
2 -24 -42 0
5 24 46 0
5 -24 -46 0
1 24 47 0
1 -24 -47 0
8 24 54 0
8 -24 -54 0
8 24 55 0
8 -24 -55 0
3 25 27 0
3 -25 -27 0
2 25 28 0
2 -25 -28 0
9 25 30 0
9 -25 -30 0
8 25 32 0
8 -25 -32 0
1 25 33 0
1 -25 -33 0
5 25 35 0
5 -25 -35 0
10 25 36 0
10 -25 -36 0
8 25 39 0
8 -25 -39 0
3 25 40 0
3 -25 -40 0
5 25 43 0
5 -25 -43 0
9 25 49 0
9 -25 -49 0
1 25 51 0
1 -25 -51 0
1 25 58 0
1 -25 -58 0
4 26 29 0
4 -26 -29 0
4 26 42 0
4 -26 -42 0
7 26 49 0
7 -26 -49 0
9 26 51 0
9 -26 -51 0
2 26 53 0
2 -26 -53 0
1 26 54 0
1 -26 -54 0
1 26 55 0
1 -26 -55 0
5 26 58 0
5 -26 -58 0
8 27 29 0
8 -27 -29 0
7 27 30 0
7 -27 -30 0
5 27 31 0
5 -27 -31 0
2 27 32 0
2 -27 -32 0
6 27 35 0
6 -27 -35 0
6 27 37 0
6 -27 -37 0
6 27 40 0
6 -27 -40 0
6 27 41 0
6 -27 -41 0
4 27 43 0
4 -27 -43 0
4 27 44 0
4 -27 -44 0
9 27 48 0
9 -27 -48 0
5 27 49 0
5 -27 -49 0
2 27 50 0
2 -27 -50 0
7 27 51 0
7 -27 -51 0
6 27 54 0
6 -27 -54 0
7 27 57 0
7 -27 -57 0
6 27 58 0
6 -27 -58 0
3 27 60 0
3 -27 -60 0
9 28 30 0
9 -28 -30 0
1 28 34 0
1 -28 -34 0
1 28 35 0
1 -28 -35 0
10 28 39 0
10 -28 -39 0
2 28 40 0
2 -28 -40 0
5 28 42 0
5 -28 -42 0
3 28 47 0
3 -28 -47 0
9 28 49 0
9 -28 -49 0
3 28 51 0
3 -28 -51 0
4 28 52 0
4 -28 -52 0
9 28 54 0
9 -28 -54 0
4 28 55 0
4 -28 -55 0
9 29 31 0
9 -29 -31 0
7 29 32 0
7 -29 -32 0
1 29 35 0
1 -29 -35 0
3 29 42 0
3 -29 -42 0
8 29 47 0
8 -29 -47 0
7 29 48 0
7 -29 -48 0
9 29 53 0
9 -29 -53 0
4 29 55 0
4 -29 -55 0
3 29 57 0
3 -29 -57 0
2 29 58 0
2 -29 -58 0
7 29 60 0
7 -29 -60 0
2 30 34 0
2 -30 -34 0
7 30 35 0
7 -30 -35 0
8 30 36 0
8 -30 -36 0
8 30 42 0
8 -30 -42 0
3 30 45 0
3 -30 -45 0
5 30 48 0
5 -30 -48 0
4 30 50 0
4 -30 -50 0
5 30 52 0
5 -30 -52 0
3 30 54 0
3 -30 -54 0
4 30 55 0
4 -30 -55 0
6 30 57 0
6 -30 -57 0
2 31 33 0
2 -31 -33 0
6 31 35 0
6 -31 -35 0
1 31 37 0
1 -31 -37 0
4 31 38 0
4 -31 -38 0
4 31 41 0
4 -31 -41 0
4 31 46 0
4 -31 -46 0
8 31 47 0
8 -31 -47 0
3 31 49 0
3 -31 -49 0
7 31 53 0
7 -31 -53 0
6 31 57 0
6 -31 -57 0
10 32 34 0
10 -32 -34 0
7 32 37 0
7 -32 -37 0
9 32 41 0
9 -32 -41 0
7 32 47 0
7 -32 -47 0
4 32 48 0
4 -32 -48 0
7 32 49 0
7 -32 -49 0
1 32 50 0
1 -32 -50 0
6 32 52 0
6 -32 -52 0
9 32 57 0
9 -32 -57 0
7 33 38 0
7 -33 -38 0
7 33 41 0
7 -33 -41 0
6 33 42 0
6 -33 -42 0
5 33 45 0
5 -33 -45 0
4 33 46 0
4 -33 -46 0
8 33 51 0
8 -33 -51 0
9 33 54 0
9 -33 -54 0
7 33 56 0
7 -33 -56 0
2 33 60 0
2 -33 -60 0
1 34 36 0
1 -34 -36 0
1 34 37 0
1 -34 -37 0
7 34 39 0
7 -34 -39 0
2 34 48 0
2 -34 -48 0
7 34 50 0
7 -34 -50 0
8 34 52 0
8 -34 -52 0
6 34 53 0
6 -34 -53 0
1 34 54 0
1 -34 -54 0
1 34 57 0
1 -34 -57 0
4 34 59 0
4 -34 -59 0
3 34 60 0
3 -34 -60 0
7 35 39 0
7 -35 -39 0
9 35 40 0
9 -35 -40 0
2 35 43 0
2 -35 -43 0
4 35 45 0
4 -35 -45 0
7 35 46 0
7 -35 -46 0
9 35 47 0
9 -35 -47 0
7 35 49 0
7 -35 -49 0
4 35 52 0
4 -35 -52 0
9 35 58 0
9 -35 -58 0
2 36 37 0
2 -36 -37 0
2 36 38 0
2 -36 -38 0
6 36 46 0
6 -36 -46 0
9 36 50 0
9 -36 -50 0
7 36 52 0
7 -36 -52 0
10 37 45 0
10 -37 -45 0
2 37 46 0
2 -37 -46 0
4 37 49 0
4 -37 -49 0
8 37 50 0
8 -37 -50 0
9 37 52 0
9 -37 -52 0
6 37 57 0
6 -37 -57 0
8 37 59 0
8 -37 -59 0
10 37 60 0
10 -37 -60 0
3 38 39 0
3 -38 -39 0
10 38 43 0
10 -38 -43 0
6 38 47 0
6 -38 -47 0
10 38 53 0
10 -38 -53 0
5 38 56 0
5 -38 -56 0
6 38 57 0
6 -38 -57 0
10 38 58 0
10 -38 -58 0
8 38 59 0
8 -38 -59 0
9 39 41 0
9 -39 -41 0
6 39 42 0
6 -39 -42 0
7 39 43 0
7 -39 -43 0
10 39 46 0
10 -39 -46 0
10 39 48 0
10 -39 -48 0
4 39 51 0
4 -39 -51 0
9 39 54 0
9 -39 -54 0
6 39 57 0
6 -39 -57 0
7 40 41 0
7 -40 -41 0
8 40 44 0
8 -40 -44 0
8 40 55 0
8 -40 -55 0
8 40 60 0
8 -40 -60 0
3 41 47 0
3 -41 -47 0
7 41 50 0
7 -41 -50 0
5 41 53 0
5 -41 -53 0
2 41 57 0
2 -41 -57 0
8 41 58 0
8 -41 -58 0
9 41 60 0
9 -41 -60 0
9 42 43 0
9 -42 -43 0
7 42 44 0
7 -42 -44 0
5 42 46 0
5 -42 -46 0
7 42 47 0
7 -42 -47 0
6 42 51 0
6 -42 -51 0
7 42 53 0
7 -42 -53 0
6 42 56 0
6 -42 -56 0
2 42 58 0
2 -42 -58 0
6 42 60 0
6 -42 -60 0
1 43 45 0
1 -43 -45 0
8 43 47 0
8 -43 -47 0
6 43 48 0
6 -43 -48 0
9 43 49 0
9 -43 -49 0
6 43 50 0
6 -43 -50 0
2 43 51 0
2 -43 -51 0
5 43 55 0
5 -43 -55 0
6 43 57 0
6 -43 -57 0
1 43 60 0
1 -43 -60 0
9 44 45 0
9 -44 -45 0
4 44 47 0
4 -44 -47 0
7 44 48 0
7 -44 -48 0
5 44 52 0
5 -44 -52 0
2 44 58 0
2 -44 -58 0
5 44 59 0
5 -44 -59 0
3 45 47 0
3 -45 -47 0
5 45 48 0
5 -45 -48 0
1 45 50 0
1 -45 -50 0
8 45 52 0
8 -45 -52 0
6 45 54 0
6 -45 -54 0
9 45 57 0
9 -45 -57 0
6 45 60 0
6 -45 -60 0
5 46 51 0
5 -46 -51 0
5 46 54 0
5 -46 -54 0
10 46 55 0
10 -46 -55 0
1 47 49 0
1 -47 -49 0
1 47 50 0
1 -47 -50 0
7 47 51 0
7 -47 -51 0
6 47 53 0
6 -47 -53 0
3 47 57 0
3 -47 -57 0
3 48 49 0
3 -48 -49 0
7 48 53 0
7 -48 -53 0
10 48 56 0
10 -48 -56 0
8 48 59 0
8 -48 -59 0
5 49 52 0
5 -49 -52 0
5 49 54 0
5 -49 -54 0
9 49 55 0
9 -49 -55 0
10 49 58 0
10 -49 -58 0
10 49 59 0
10 -49 -59 0
9 50 51 0
9 -50 -51 0
8 50 53 0
8 -50 -53 0
4 50 58 0
4 -50 -58 0
6 51 54 0
6 -51 -54 0
3 51 56 0
3 -51 -56 0
5 51 58 0
5 -51 -58 0
10 51 59 0
10 -51 -59 0
5 52 56 0
5 -52 -56 0
9 52 58 0
9 -52 -58 0
10 53 56 0
10 -53 -56 0
2 53 59 0
2 -53 -59 0
5 54 56 0
5 -54 -56 0
8 54 58 0
8 -54 -58 0
8 55 57 0
8 -55 -57 0
10 56 58 0
10 -56 -58 0
3 57 58 0
3 -57 -58 0
